15 40
25
7 12 0 21
7 7 0 33
1 7 14 0
1 5 14 13
2 3 7 21
2 6 10 20
2 7 12 12
2 5 13 26
1 3 14 23
1 6 14 7
6 12 0 0
6 9 0 12
2 12 12 0
2 7 12 19
3 10 9 0
1 4 9 20
1 5 14 18
3 16 6 0
3 5 6 16
2 4 13 36
2 5 13 31
3 10 9 10
3 9 10 26
3 16 7 24
3 5 10 35
